TCS_Benchmarks/redos_fix/corpus1_output_distinct_1009_1008_1_0.txt
(@2x|~ipad)+(@2x|~iphone)+
(@2x|~ipad)+
~.*